(set-logic HORN)
(declare-fun inv ((_ BitVec 32) (_ BitVec 32) (_ BitVec 32) (_ BitVec 32) (_ BitVec 32) (_ BitVec 32) (_ BitVec 32) ) Bool)
(assert (forall ((i (_ BitVec 32)) (j (_ BitVec 32)) (k (_ BitVec 32)) (c1 (_ BitVec 32)) (c2 (_ BitVec 32)) (n (_ BitVec 32)) (v (_ BitVec 32))) 
       (=> ( and ( bvsgt n (_ bv0 32) ) ( bvslt n (_ bv10 32) ) ( = k (_ bv0 32) ) ( = i (_ bv0 32) ) ( = c1 (_ bv4000 32) ) ( = c2 (_ bv2000 32) ) ) (inv i j k c1 c2 n v))))
(assert (forall ((i (_ BitVec 32)) (j (_ BitVec 32)) (k (_ BitVec 32)) (c1 (_ BitVec 32)) (c2 (_ BitVec 32)) (n (_ BitVec 32)) (v (_ BitVec 32)) (i! (_ BitVec 32)) (j! (_ BitVec 32)) (k! (_ BitVec 32)) (c1! (_ BitVec 32)) (c2! (_ BitVec 32)) (n! (_ BitVec 32)) (v! (_ BitVec 32))) 
       (=> (and (inv i j k c1 c2 n v) ( or ( and ( bvsge i n ) ( = i! i ) ( = j! j ) ( = k! k ) ( = c1! c1 ) ( = c2! c2 ) ( = n! n ) ( = v! v ) ) ( and ( bvslt i n ) ( = i! ( bvadd i (_ bv1 32) ) ) ( = j! j ) ( = k! ( bvadd k c1 ) ) ( = c1! c1 ) ( = c2! c2 ) ( = n! n ) ( = v! (_ bv0 32) ) ) ( and ( bvslt i n ) ( = i! ( bvadd i (_ bv1 32) ) ) ( = j! j ) ( = k! ( bvadd k c2 ) ) ( = c1! c1 ) ( = c2! c2 ) ( = n! n ) ( = v! (_ bv1 32) ) ) )) (inv i! j! k! c1! c2! n! v!))))
(assert (forall ((i (_ BitVec 32)) (j (_ BitVec 32)) (k (_ BitVec 32)) (c1 (_ BitVec 32)) (c2 (_ BitVec 32)) (n (_ BitVec 32)) (v (_ BitVec 32))) 
       (=> (inv i j k c1 c2 n v) ( => ( bvsge i n ) ( bvsgt k n ) ))))
(check-sat)
